120
1000
200
200
200
200
198
198
198
197
197
197
196
195
195
193
193
193
193
193
193
192
191
191
191
190
189
189
189
189
189
188
186
186
186
184
184
184
184
183
183
182
182
180
180
180
180
180
179
179
178
177
177
176
176
175
175
175
175
174
174
174
174
174
173
173
171
169
169
169
169
168
168
167
167
167
166
165
165
165
164
164
164
164
162
161
161
160
160
160
159
159
159
158
158
157
157
157
156
156
156
156
156
155
155
155
155
154
154
154
154
153
153
153
152
152
152
151
151
150
150
150
